
        H = 300;
        W = 200;
        qtdeNiveis = 3;
        qtdeCategorias = 4;
        
        Wmin = [75,70,50,50];
        Wmax = [140,120,110,120];

        Ir = [{1},{2},{3},{4}];
        h = [30,26,20,3];
        w = [11,6,8,3];
        d = [15,10,3,50];
        // dMin = [5,5,5,15]; // descomentar se necessario 
        
        v = [[180,300,150], [240,400,200], [180,300,150], [180,300,150]];
        
        
        l = [1,1,1,1];
        